CAPACITY = 3;
N_TASKS = 20;
d = [ 4, 1, 5, 2, 1, 1, 2, 1, 2, 4, 1, 4, 4, 2, 2, 5, 5, 5, 2, 5 ];
rr = [ 2, 1, 2, 1, 1, 2, 2, 1, 1, 1, 1, 1, 2, 2, 1, 1, 2, 1, 1, 1 ];
suc = [ { 20 },
       { 13, 16 },
       { 4, 13 },
       { 6, 18 },
       { 8 },
       {  },
       {  },
       {  },
       { 13 },
       { 14 },
       { 15 },
       { 14, 20 },
       { 14 },
       {  },
       { 20 },
       {  },
       {  },
       {  },
       {  },
       {  } ];
